Route #1: 1 3 1 
Route #2: 1 27 11 39 12 11 54 36 9 1 
Route #3: 1 35 47 9 53 28 14 9 1 
Route #4: 1 5 49 48 16 6 48 21 38 48 31 1 
Route #5: 1 48 37 48 22 29 48 30 46 1 
Route #6: 1 8 9 15 20 9 55 9 1 
Route #7: 1 13 11 32 11 40 10 33 45 41 1 
Route #8: 1 45 19 51 45 50 45 4 17 1 
Route #9: 1 2 44 24 44 42 43 23 44 34 1 
Route #10: 1 18 45 26 45 25 45 52 7 1 
Cost 940.0
